578,470
722,875
707,724
920,212
290,278
628,330
357,124
84,110
177,903
922,986
549,209
106,178
169,736
998,946
856,408
621,891
593,86
131,18
773,818
839,284
858,259
332,611
406,334
101,287
868,638
258,486
112,505
956,266
368,14
630,465
666,570
892,664
427,477
378,830
994,602
34,377
791,993
758,277
595,871
865,174
46,879
579,416
613,412
364,142
769,287
192,349
297,223
497,216
262,579
365,550
424,616
120,964
925,928
692,578
225,141
794,327
964,948
230,266
785,334
360,721
582,140
245,581
70,257
596,201
387,197
557,125
251,137
669,434
822,567
881,234
339,37
920,312
252,239
910,959
809,300

5174
11280
6342
2693
5696
784
629
2400
1798
542
